treewidth/data/KneserGraph_8_3.gr
p tw 56 280
1 46
1 56
1 9
1 16
1 18
1 25
1 32
1 34
1 48
1 51
2 13
2 3
2 4
2 9
2 10
2 11
2 15
2 19
2 21
2 31
13 5
13 16
13 17
13 25
13 27
13 28
13 32
13 34
13 47
24 35
24 56
24 9
24 11
24 18
24 19
24 31
24 34
24 39
24 52
35 55
35 6
35 7
35 21
35 38
35 44
35 47
35 48
35 49
46 7
46 10
46 20
46 27
46 29
46 43
46 45
46 50
46 52
53 5
53 8
53 19
53 22
53 23
53 25
53 28
53 29
53 42
53 47
54 9
54 11
54 14
54 19
54 22
54 28
54 29
54 30
54 31
54 49
55 17
55 19
55 22
55 27
55 28
55 29
55 34
55 50
55 52
56 4
56 5
56 8
56 12
56 22
56 23
56 36
56 40
3 8
3 26
3 27
3 29
3 32
3 42
3 47
3 50
3 52
4 6
4 27
4 32
4 41
4 47
4 48
4 49
4 51
5 10
5 20
5 21
5 31
5 39
5 43
5 52
6 10
6 15
6 19
6 20
6 34
6 37
6 43
6 52
7 11
7 16
7 18
7 23
7 26
7 33
7 39
7 51
8 9
8 15
8 18
8 21
8 34
8 37
8 43
9 20
9 26
9 40
9 45
9 50
10 16
10 17
10 18
10 30
10 41
10 51
11 27
11 32
11 38
11 43
11 45
11 47
12 26
12 31
12 32
12 33
12 39
12 42
12 48
12 51
12 52
14 15
14 16
14 25
14 32
14 34
14 36
14 37
14 38
14 43
15 26
15 33
15 39
15 41
15 50
15 51
16 21
16 29
16 31
16 44
16 49
17 21
17 31
17 33
17 38
17 40
17 42
17 48
18 29
18 38
18 40
18 42
18 47
19 41
19 44
19 45
19 51
20 25
20 28
20 30
20 47
20 48
20 49
21 22
21 23
21 26
21 50
22 32
22 38
22 43
22 48
22 51
23 27
23 41
23 43
23 44
23 45
23 49
25 39
25 41
25 44
25 45
25 50
26 28
26 30
26 44
26 49
27 33
27 36
27 40
28 33
28 39
28 40
28 51
29 36
29 37
29 51
30 32
30 38
30 40
30 42
30 43
30 52
31 36
31 37
31 45
32 44
33 34
33 37
33 43
33 45
34 40
34 44
36 39
36 41
36 49
36 50
36 52
37 42
37 47
37 48
37 49
38 39
38 41
38 50
39 47
40 41
40 49
41 42
42 44
42 45
44 52
45 48
48 50
