treewidth/data/KneserGraph_8_3.td
c width = 29, time = 299.810166
s td 13 30 56
b 1 9 10 11 12 13 17 19 21 23 25 26 31 32 33 38 39 40 42 45 46 48 51 52 55 56
b 2 5 6 8 9 10 11 13 14 19 21 22 23 25 26 29 31 32 33 38 39 40 42 46 47 48 49 51 52 55 56
b 3 6 8 9 10 11 13 14 19 21 23 25 26 29 31 32 33 34 35 38 39 40 42 46 47 48 49 51 52 55 56
b 4 8 9 10 11 13 14 18 19 21 23 25 26 29 31 32 33 34 35 38 39 40 42 44 46 47 48 49 51 52 56
b 5 1 7 9 10 11 13 14 16 18 21 23 25 26 29 31 32 33 34 35 39 44 46 48 49 51 56
b 6 9 11 18 19 24 31 34 35 39 52 56
b 7 6 8 9 10 11 13 14 19 21 23 25 26 29 31 32 33 38 39 40 41 42 46 47 48 49 50 51 52 55 56
b 8 6 8 9 10 11 13 14 15 19 21 23 26 27 29 31 32 33 39 40 41 42 46 47 48 49 50 51 52 55 56
b 9 2 3 4 6 8 9 10 11 13 15 19 21 26 27 29 31 32 41 42 47 48 49 50 51 52 56
b 10 14 27 29 31 36 39 41 49 50 52 56
b 11 5 6 8 9 10 11 13 14 19 22 23 25 26 29 30 31 32 33 38 39 40 42 43 46 47 48 49 51 52 55
b 12 5 6 8 9 11 13 14 19 20 22 23 25 26 28 29 30 31 33 39 40 42 46 47 48 49 51 53 54 55
b 13 6 8 14 29 31 33 37 42 47 48 49
4 5
4 6
3 4
2 3
8 9
8 10
7 8
2 7
11 12
2 11
2 13
1 2
